Set parameter Username
Set parameter LogFile to value "gurobi.log"
Academic license - for non-commercial use only - expires 2024-05-02
Using license file /Users/sissi/gurobi.lic

Gurobi Optimizer version 10.0.1 build v10.0.1rc0 (mac64[arm])
Copyright (c) 2023, Gurobi Optimization, LLC

Read OPB format model from file pbo/p_pbo_0_2456.opb
Reading time = 0.01 seconds
(null): 2005 rows, 1057 columns, 5973 nonzeros

CPU model: Apple M2
Thread count: 8 physical cores, 8 logical processors, using up to 8 threads

Optimize a model with 2005 rows, 1057 columns and 5973 nonzeros
Model fingerprint: 0x5f148fc2
Variable types: 0 continuous, 1057 integer (1057 binary)
Coefficient statistics:
  Matrix range     [1e+00, 1e+00]
  Objective range  [1e+00, 4e+00]
  Bounds range     [1e+00, 1e+00]
  RHS range        [1e+00, 1e+00]
Found heuristic solution: objective -360.0000000
Presolve removed 1001 rows and 511 columns
Presolve time: 0.00s
Presolved: 1004 rows, 546 columns, 3012 nonzeros
Variable types: 0 continuous, 546 integer (546 binary)

Root relaxation: objective -6.140000e+02, 119 iterations, 0.00 seconds (0.00 work units)

    Nodes    |    Current Node    |     Objective Bounds      |     Work
 Expl Unexpl |  Obj  Depth IntInf | Incumbent    BestBd   Gap | It/Node Time

     0     0 -614.00000    0   44 -360.00000 -614.00000  70.6%     -    0s
     0     0 -427.90022    0  537 -360.00000 -427.90022  18.9%     -    0s
H    0     0                    -395.0000000 -427.90022  8.33%     -    0s
     0     0 -406.31785    0  541 -395.00000 -406.31785  2.87%     -    0s
     0     0 -404.43200    0  541 -395.00000 -404.43200  2.39%     -    0s
     0     0 -403.89597    0  542 -395.00000 -403.89597  2.25%     -    0s
     0     0 -403.72708    0  542 -395.00000 -403.72708  2.21%     -    0s
     0     0 -398.98869    0  542 -395.00000 -398.98869  1.01%     -    1s
     0     0 -397.74870    0  543 -395.00000 -397.74870  0.70%     -    1s
     0     0 -397.55459    0  543 -395.00000 -397.55459  0.65%     -    1s
     0     0 -397.37872    0  543 -395.00000 -397.37872  0.60%     -    1s
     0     0     cutoff    0      -395.00000 -395.00000  0.00%     -    1s

Cutting planes:
  MIR: 115
  RLT: 252

Explored 1 nodes (7357 simplex iterations) in 1.19 seconds (1.22 work units)
Thread count was 8 (of 8 available processors)

Solution count 2: -395 -360 
No other solutions better than -395

Optimal solution found (tolerance 1.00e-04)
Best objective -3.950000000000e+02, best bound -3.950000000000e+02, gap 0.0000%

Wrote result file 'solution/p_0_2456.sol'

